============================[ Problem Statistics ]=============================|                                                                             ||  Number of variables:          4242                                         ||  Number of clauses:            9855                                         ||  Parse time:                   0.27 s                                       ||                                                                             |============================[ Search Statistics ]==============================| Conflicts |          ORIGINAL         |          LEARNT          | Progress ||           |    Vars  Clauses Literals |    Limit  Clauses Lit/Cl |          |===============================================================================|       100 |    1591     6060   388861 |     2222      100     53 | 62.501 % |===============================================================================restarts              : 2conflicts             : 150            (356 /sec)decisions             : 320            (0.00 % random) (760 /sec)propagations          : 9956           (23648 /sec)conflict literals     : 9699           (95.41 % deleted)CPU time              : 0.421 sSATISFIABLE